100
128
17
39
6
47
5
35
6
62
1
1
2
6
12
16
8
11
5
9
1
20
2
12
24
7
10
26
20
18
25
8
22
2
10
1
3
12
2
8
16
3
17
14
1
1
14
10
7
2
49
28
14
33
6
16
15
7
31
38
1
4
5
5
47
15
9
44
2
56
54
51
6
6
50
10
6
32
3
28
54
8
1
64
37
63
52
32
9
42
33
54
42
52
64
41
64
34
56
64
5
19